c This is UnifRandomKSATGenerator
c uniform random 3-SAT generated instance with: 
c clause length: 3 
c number variables: 20 
c number clauses: 85 
c clause to variable ratio: 4.27 
c random number generator name: SHA1PRNG 
c random number generator provider: SUN 
c random number generator seed: 134892697122100338 
p cnf 20 85
-10 1 15 0
-17 -19 6 0
-11 -12 6 0
9 10 6 0
17 -11 -20 0
1 19 -6 0
9 17 6 0
-9 -5 20 0
-17 -4 6 0
-9 1 -4 0
-5 12 13 0
-10 2 12 0
-10 2 19 0
-1 4 12 0
9 3 4 0
18 -15 -8 0
9 10 -15 0
9 18 -15 0
-9 18 13 0
-9 5 13 0
3 -5 -6 0
16 -9 5 0
19 3 -14 0
-9 11 -16 0
-18 12 -13 0
-11 2 4 0
-10 19 12 0
-10 12 4 0
-19 12 -6 0
9 -20 -16 0
2 18 -7 0
16 -11 -6 0
18 20 13 0
1 2 18 0
9 -20 15 0
-4 -5 -15 0
1 10 -20 0
8 -10 5 0
-17 18 7 0
-4 -7 -8 0
9 1 -12 0
-10 -3 5 0
1 11 14 0
17 -5 -15 0
-12 13 -7 0
-1 -5 15 0
16 -1 -5 0
-17 4 -8 0
-19 2 -12 0
9 2 -12 0
2 -4 6 0
-17 12 -8 0
-11 19 4 0
-2 9 -6 0
-3 12 20 0
8 19 -5 0
-12 19 -6 0
8 18 3 0
18 -13 -8 0
-12 -13 -16 0
-12 11 15 0
18 11 -12 0
17 -6 15 0
-9 -10 7 0
16 -9 1 0
9 13 14 0
17 14 15 0
1 -2 -19 0
4 5 -16 0
-10 -6 -8 0
-2 -19 15 0
8 18 -6 0
8 -9 -6 0
-1 10 2 0
-10 17 -19 0
17 12 4 0
1 18 6 0
-10 -11 15 0
-17 -11 -13 0
-1 -19 7 0
-9 -11 -3 0
3 -5 -13 0
-9 -1 -11 0
11 -5 14 0
1 -11 -12 0
